16139
101001000001001001101000110010
20 5 14 2 28 5 17 24 20 0 24 11 28 14 0 14 14 17 25 11 2 11 5 0 24 20 2 24 5 5 5 25 28 5 20 28 24 24 0 14 0 14 5 18 24 14 0 20 25 14 14 14 17 5 20 20 2 11 0 14 0 5 20 25 11 11 24 0 25 24 20 20 11 0 24 28 25 20 14 24 20 0 20 17 2 17 2 11 20 5 2 5 17 11 14 24 17 0 25 14 28 2 14 11 17 25 0 11 14 28 14 0 2 11 11 2 24 24 5 24 5 28 25 20 28 11 5 28 11 11 0 5 24 24 20 14 0 24 20 17 0 28 20 14 20 11 0 5 2 11 